155
0 59 95 108 128 6 117 38 46 58 
62 72 98 86 111 131 92 120 112 16 
36 41 39 65 44 82 129 105 151 21 
144 67 49 133 74 148 54 154 103 124 
13 110 119 115 23 50 80 87 22 149 
127 109 19 47 152 96 113 55 146 64 
51 20 33 125 122 84 83 121 53 29 
135 99 130 134 7 104 118 8 9 42 
5 56 142 40 126 73 34 107 153 106 
25 85 145 147 68 2 141 18 71 10 
143 137 66 11 32 12 79 28 26 27 
45 97 89 101 102 14 31 57 24 3 
91 132 136 94 30 35 88 1 52 17 
90 43 69 100 48 61 60 4 75 70 
116 63 93 138 81 139 140 123 114 77 
78 150 37 76 15 
